NAME : mar10_100_0
COMMENT : Data set with 10 points
COMMENT : CIn-UFPE
COMMENT : Contributed by Marcelo Lacerda
TYPE : TSP
DIMENSION : 10
EDGE_WEIGHT_TYPE : EUC_2D
NODE_COORD_SECTION
1 31 95
2 64 96
3 77 46
4 29 34
5 4 62
6 49 86
7 22 61
8 20 33
9 66 4
10 80 48
EOF
